$RunGauss 
%NProcShared=12     
%mem=2GB
%chk=Defects_Hopt.chk
#p BLYP/LANL2DZ Symmetry=(Loose,Follow) scf=(Tight,XQC) opt=(Tight,ModRedundant) GFPrint GFInput 

Gaussian imput generated by Python program 

 0 1
 C    -5.195419     0.033599    10.296896
 C    -5.199565     0.068839     7.804038
 C    -5.194046     0.057153     5.310802
 C    -5.194046     0.057153    -5.310802
 C    -5.199565     0.068839    -7.804038
 C    -5.195419     0.033599   -10.296896
 C    -2.991849    -0.010864     9.068678
 C    -2.991443    -0.000563     6.536637
 C    -2.991443    -0.000563    -6.536637
 C    -2.991849    -0.010864    -9.068678
 C    -0.720471    -0.001470    10.281911
 C    -0.740474     0.010521     7.802141
 C    -0.720158     0.003379     5.322129
 C    -0.720158     0.003379    -5.322129
 C    -0.740474     0.010521    -7.802141
 C    -0.720471    -0.001470   -10.281911
 C     1.478637    -0.009275     9.064382
 C     1.478499    -0.014878     6.540041
 C     1.478499    -0.014878    -6.540041
 C     1.478637    -0.009275    -9.064382
 C     3.746353    -0.003958    10.289029
 C     3.725237     0.001398     7.802969
 C     3.745317    -0.027528     5.316169
 C     3.745317    -0.027528    -5.316169
 C     3.725237     0.001398    -7.802969
 C     3.746353    -0.003958   -10.289029
 C     5.917957    -0.098147     9.077298
 C     5.917247    -0.108588     6.531722
 C     5.917247    -0.108588    -6.531722
 C     5.917957    -0.098147    -9.077298
 C    -5.917957     0.098147     9.077298
 C    -5.917247     0.108588     6.531722
 C    -5.917247     0.108588    -6.531722
 C    -5.917957     0.098147    -9.077298
 C    -3.746353     0.003958    10.289029
 C    -3.725237    -0.001398     7.802969
 C    -3.745317     0.027528     5.316169
 C    -3.745317     0.027528    -5.316169
 C    -3.725237    -0.001398    -7.802969
 C    -3.746353     0.003958   -10.289029
 C    -1.478637     0.009275     9.064382
 C    -1.478499     0.014878     6.540041
 C    -1.478499     0.014878    -6.540041
 C    -1.478637     0.009275    -9.064382
 C     0.720471     0.001470    10.281911
 C     0.740474    -0.010521     7.802141
 C     0.720158    -0.003379     5.322129
 C     0.720158    -0.003379    -5.322129
 C     0.740474    -0.010521    -7.802141
 C     0.720471     0.001470   -10.281911
 C     2.991849     0.010864     9.068678
 C     2.991443     0.000563     6.536637
 C     2.991443     0.000563    -6.536637
 C     2.991849     0.010864    -9.068678
 C     5.195419    -0.033599    10.296896
 C     5.199565    -0.068839     7.804038
 C     5.194046    -0.057153     5.310802
 C     5.194046    -0.057153    -5.310802
 C     5.199565    -0.068839    -7.804038
 C     5.195419    -0.033599   -10.296896
 H    -5.735174     0.007668    11.208807
 H    -5.733733     0.040930     4.398626
 H    -5.733733     0.040930    -4.398626
 H    -5.735174     0.007668   -11.208807
 H    -1.238917    -0.011860    11.206408
 H    -1.238039    -0.000219     4.397264
 H    -1.238039    -0.000219    -4.397264
 H    -1.238917    -0.011860   -11.206408
 H     3.219497     0.007284    11.208750
 H     3.219119    -0.026366     4.396004
 H     3.219119    -0.026366    -4.396004
 H     3.219497     0.007284   -11.208750
 H     6.974981    -0.166996     9.116663
 H     6.974456    -0.175491     6.494012
 H     6.974456    -0.175491    -6.494012
 H     6.974981    -0.166996    -9.116663
 H    -6.974981     0.166996     9.116663
 H    -6.974456     0.175491     6.494012
 H    -6.974456     0.175491    -6.494012
 H    -6.974981     0.166996    -9.116663
 H    -3.219497    -0.007284    11.208750
 H    -3.219119     0.026366     4.396004
 H    -3.219119     0.026366    -4.396004
 H    -3.219497    -0.007284   -11.208750
 H     1.238917     0.011860    11.206408
 H     1.238039     0.000219     4.397264
 H     1.238039     0.000219    -4.397264
 H     1.238917     0.011860   -11.206408
 H     5.735174    -0.007668    11.208807
 H     5.733733    -0.040930     4.398626
 H     5.733733    -0.040930    -4.398626
 H     5.735174    -0.007668   -11.208807

X 1 F 
X 2 F 
X 3 F 
X 4 F 
X 5 F 
X 6 F 
X 7 F 
X 8 F 
X 9 F 
X 10 F 
X 11 F 
X 12 F 
X 13 F 
X 14 F 
X 15 F 
X 16 F 
X 17 F 
X 18 F 
X 19 F 
X 20 F 
X 21 F 
X 22 F 
X 23 F 
X 24 F 
X 25 F 
X 26 F 
X 27 F 
X 28 F 
X 29 F 
X 30 F 
X 31 F 
X 32 F 
X 33 F 
X 34 F 
X 35 F 
X 36 F 
X 37 F 
X 38 F 
X 39 F 
X 40 F 
X 41 F 
X 42 F 
X 43 F 
X 44 F 
X 45 F 
X 46 F 
X 47 F 
X 48 F 
X 49 F 
X 50 F 
X 51 F 
X 52 F 
X 53 F 
X 54 F 
X 55 F 
X 56 F 
X 57 F 
X 58 F 
X 59 F 
X 60 F 


