$RunGauss 
%NProcShared=12     
%mem=10GB
%chk=FGrph-3hex_fb_Scan_5-1.chk
#p BLYP/LANL2DZ Symmetry=(Loose,Follow) scf=(XQC) GFPrint GFInput 

Gaussian imput generated by Python program 

 0 1
 C    -6.240764    -2.609027     6.508747
 C    -8.321005    -3.478680     5.207057
 C   -10.401185    -4.348334     3.905269
 C    -4.160638    -1.739431     5.206716
 C    -6.221186    -2.663735     3.908394
 C    -8.299688    -3.532674     2.607724
 C   -10.400897    -4.348236     1.301732
 C    -2.080438    -0.869782     3.904985
 C    -4.153222    -1.756863     2.603456
 C    -6.226917    -2.644929     1.303649
 C    -8.313608    -3.496155    -0.000000
 C   -10.400897    -4.348236    -1.301732
 C    -0.000048    -0.000033     2.603479
 C    -2.053978    -0.921592     1.300671
 C    -4.143654    -1.774000     0.000000
 C    -6.226916    -2.644929    -1.303649
 C    -8.299688    -3.532676    -2.607725
 C   -10.401184    -4.348335    -3.905269
 C     0.000000     0.000000     0.000000
 C    -2.053978    -0.921592    -1.300670
 C    -4.153222    -1.756864    -2.603456
 C    -6.221184    -2.663736    -3.908395
 C    -8.321003    -3.478682    -5.207057
 C    -0.000047    -0.000033    -2.603478
 C    -2.080437    -0.869783    -3.904984
 C    -4.160636    -1.739432    -5.206716
 C    -6.240762    -2.609029    -6.508747
 C    -4.648909    -2.519576     6.508747
 C    -6.729035    -3.389172     5.206716
 C    -8.809234    -4.258821     3.904984
 C   -10.889624    -5.128571     2.603478
 C    -2.568668    -1.649923     5.207057
 C    -4.668487    -2.464868     3.908394
 C    -6.736449    -3.371741     2.603456
 C    -8.835693    -4.207012     1.300670
 C   -10.889671    -5.128604    -0.000000
 C    -0.488487    -0.780269     3.905269
 C    -2.589983    -1.595929     2.607725
 C    -4.662755    -2.483675     1.303649
 C    -6.746017    -3.354605    -0.000000
 C    -8.835693    -4.207013    -1.300671
 C   -10.889623    -5.128572    -2.603479
 C    -0.488774    -0.780368     1.301732
 C    -2.576063    -1.632449     0.000000
 C    -4.662754    -2.483676    -1.303649
 C    -6.736449    -3.371742    -2.603456
 C    -8.809232    -4.258822    -3.904985
 C    -0.488774    -0.780369    -1.301732
 C    -2.589983    -1.595930    -2.607724
 C    -4.668485    -2.464869    -3.908394
 C    -6.729033    -3.389174    -5.206716
 C    -0.488486    -0.780271    -3.905269
 C    -2.568666    -1.649924    -5.207057
 C    -4.648907    -2.519578    -6.508747
 F    -6.801214    -1.321516     6.638781
 F    -8.926872    -2.210514     5.328023
 F   -11.037196    -3.092412     3.988019
 F    -4.669482    -0.405789     5.312008
 F    -6.805930    -1.334415     3.961855
 F    -8.890109    -2.205728     2.657633
 F   -11.056051    -3.075760     1.315467
 F    -2.567333     0.473036     3.996541
 F    -4.701339    -0.415132     2.623922
 F    -6.795438    -1.312311     1.321877
 F    -8.894430    -2.168097    -0.000001
 F   -11.056051    -3.075761    -1.315467
 F    -0.428262     1.342761     2.650762
 F    -2.558967     0.441071     1.304222
 F    -4.683046    -0.429205    -0.000000
 F    -6.795437    -1.312312    -1.321877
 F    -8.890109    -2.205729    -2.657634
 F   -11.037195    -3.092413    -3.988020
 F    -0.412559     1.343847    -0.117571
 F    -2.558967     0.441070    -1.304223
 F    -4.701339    -0.415133    -2.623922
 F    -6.805929    -1.334416    -3.961856
 F    -8.926871    -2.210516    -5.328024
 F    -0.428261     1.342761    -2.650761
 F    -2.567332     0.473035    -3.996542
 F    -4.669480    -0.405790    -5.312009
 F    -6.801214    -1.321518    -6.638782
 F    -4.088457    -3.807086     6.638782
 F    -6.220191    -4.722814     5.312009
 F    -8.322339    -5.601639     3.996542
 F   -10.461410    -6.471365     2.650761
 F    -1.962800    -2.918088     5.328024
 F    -4.083742    -3.794188     3.961856
 F    -6.188332    -4.713471     2.623922
 F    -8.330704    -5.569675     1.304223
 F   -10.477112    -6.477584    -0.000000
 F     0.147524    -2.036191     3.988020
 F    -1.999562    -2.922876     2.657634
 F    -4.094234    -3.816293     1.321877
 F    -6.206625    -4.699400     0.000000
 F    -8.330704    -5.569675    -1.304223
 F   -10.461409    -6.471366    -2.650762
 F     0.166380    -2.052844     1.315467
 F    -1.995241    -2.960507     0.000001
 F    -4.094233    -3.816293    -1.321877
 F    -6.188332    -4.713472    -2.623922
 F    -8.322338    -5.601640    -3.996541
 F     0.166380    -2.052844    -1.315467
 F    -1.999562    -2.922877    -2.657633
 F    -4.083740    -3.794189    -3.961855
 F    -6.220189    -4.722816    -5.312008
 F     0.147526    -2.036193    -3.988019
 F    -1.962799    -2.918090    -5.328023
 F    -4.088456    -3.807089    -6.638781
 F    -0.065742    -0.024160    -5.029304
 F    -2.175933    -0.892669    -6.340555
 F    -4.271432    -1.782392    -7.661110
 F    -6.618239    -3.346212     7.661110
 F    -8.713738    -4.235936     6.340555
 F   -10.823929    -5.104444     5.029304
 F    -4.271434    -1.782390     7.661110
 F   -12.308384    -5.142320     2.631806
 F    -2.175935    -0.892667     6.340554
 F   -12.308294    -5.128604    -0.000000
 F    -0.065743    -0.024158     5.029304
 F   -12.308383    -5.142321    -2.631807
 F     1.418712     0.013716     2.631806
 F   -10.823928    -5.104446    -5.029304
 F     1.418623    -0.000000     0.000000
 F    -8.713736    -4.235938    -6.340555
 F     1.418713     0.013715    -2.631806
 F    -6.618237    -3.346215    -7.661110


