$RunGauss 
%NProcShared=12     
%mem=10GB
%chk=FGrph-3hex_fb_Scan_02.chk
#p BLYP/LANL2DZ Symmetry=(Loose,Follow) scf=(XQC) GFPrint GFInput 

Gaussian imput generated by Python program 

 0 1
 C    -0.894784    -7.018635    -8.872664
 C    -1.047548    -9.222870    -7.495672
 C    -1.200328   -11.427044    -6.118582
 C    -0.654740    -4.733333    -7.648661
 C    -0.865635    -6.935456    -6.273156
 C    -1.018281    -9.137850    -4.897246
 C    -1.113027   -11.345552    -3.517785
 C    -0.414677    -2.447956    -6.424962
 C    -0.586305    -4.650367    -5.047555
 C    -0.758652    -6.853997    -3.671809
 C    -0.891846    -9.058739    -2.293497
 C    -1.025736   -11.264367    -0.917053
 C    -0.174584    -0.162372    -5.201495
 C    -0.384724    -2.357219    -3.821751
 C    -0.518236    -4.565254    -2.446307
 C    -0.671232    -6.772693    -1.067246
 C    -0.843412    -8.975214     0.312733
 C    -0.938448   -11.183483     1.683763
 C    -0.087275    -0.081131    -2.600750
 C    -0.297504    -2.276101    -1.223139
 C    -0.411723    -4.487996     0.153896
 C    -0.603546    -6.691699     1.535434
 C    -0.698373    -8.898120     2.907520
 C     0.000000     0.000000     0.000000
 C    -0.152817    -2.204412     1.376816
 C    -0.305588    -4.408604     2.753849
 C    -0.458321    -6.612701     4.131177
 C    -1.292980    -5.475187    -8.907480
 C    -1.445713    -7.679284    -7.530151
 C    -1.598484    -9.883477    -6.153118
 C    -1.751301   -12.087889    -4.776303
 C    -1.052927    -3.189769    -7.683823
 C    -1.147755    -5.396189    -6.311737
 C    -1.339578    -7.599892    -4.930198
 C    -1.453797    -9.811788    -3.553164
 C    -1.664025   -12.006758    -2.175553
 C    -0.812852    -0.904406    -6.460066
 C    -0.907889    -3.112675    -5.089035
 C    -1.080068    -5.315196    -3.709057
 C    -1.233064    -7.522635    -2.329996
 C    -1.366576    -9.730669    -0.954551
 C    -1.576717   -11.925516     0.425193
 C    -0.725565    -0.823521    -3.859250
 C    -0.859455    -3.029150    -2.482806
 C    -0.992648    -5.233891    -1.104494
 C    -1.164996    -7.437522     0.271252
 C    -1.336623    -9.639933     1.648659
 C    -0.638273    -0.742336    -1.258517
 C    -0.733020    -2.950038     0.120943
 C    -0.885666    -5.152433     1.496853
 C    -1.096561    -7.354555     2.872359
 C    -0.550973    -0.660845     1.342280
 C    -0.703752    -2.865018     2.719369
 C    -0.856516    -5.069254     4.096361
 F     0.496997    -7.166864    -9.044921
 F     0.339907    -9.419935    -7.657182
 F     0.185904   -11.655338    -6.240820
 F     0.766126    -4.817668    -7.799122
 F     0.575901    -7.091785    -6.370177
 F     0.422838    -9.300194    -4.990510
 F     0.297093   -11.584919    -3.571393
 F     1.008721    -2.508176    -6.562510
 F     0.857032    -4.767019    -5.112845
 F     0.682278    -6.992775    -3.734089
 F     0.549090    -9.210046    -2.337137
 F     0.385306   -11.502876    -0.943218
 F     1.232458    -0.165321    -5.295963
 F     1.066015    -2.425926    -3.871855
 F     0.926056    -4.672029    -2.491450
 F     0.770921    -6.910333    -1.093107
 F     0.601053    -9.134445     0.319182
 F     0.453333   -11.406615     1.726852
 F     1.322488    -0.065821    -2.648546
 F     1.153474    -2.344585    -1.266146
 F     1.032987    -4.603372     0.129494
 F     0.841575    -6.844693     1.545224
 F     0.697193    -9.087640     2.987689
 F     1.388788     0.244881    -0.000000
 F     1.276721    -2.258922     1.422189
 F     1.122338    -4.486372     2.813752
 F     0.942180    -6.752822     4.218715
 F    -2.693480    -5.335067    -8.995018
 F    -2.873639    -7.601516    -7.590055
 F    -3.028022    -9.828966    -6.198492
 F    -3.161513   -12.087889    -4.776303
 F    -2.448494    -3.000248    -7.763991
 F    -2.592875    -5.243195    -6.321526
 F    -2.784288    -7.484516    -4.905797
 F    -2.904774    -9.743304    -3.510157
 F    -3.073789   -12.022068    -2.127757
 F    -2.204633    -0.681273    -6.503155
 F    -2.352354    -2.953444    -5.095485
 F    -2.522221    -5.177556    -3.683196
 F    -2.677356    -7.415859    -2.284852
 F    -2.817316    -9.661963    -0.904447
 F    -2.983758   -11.922567     0.519660
 F    -2.136606    -0.585012    -3.833085
 F    -2.300390    -2.877843    -2.439165
 F    -2.433579    -5.095113    -1.042214
 F    -2.608333    -7.320869     0.336543
 F    -2.760022    -9.579712     1.786207
 F    -2.048394    -0.502970    -1.204910
 F    -2.174138    -2.787695     0.214207
 F    -2.327201    -4.996104     1.593875
 F    -2.517426    -7.270220     3.022819
 F    -1.937205    -0.432551     1.464518
 F    -2.091207    -2.667954     2.880880
 F    -2.248297    -4.921025     4.268619
 F     0.078311     0.005764     2.425564
 F    -0.063948    -2.226356     3.812645
 F    -0.230557    -4.450612     5.209612
 F    -1.520744    -7.637276    -9.985915
 F    -1.687353    -9.861532    -8.588948
 F    -1.829612   -12.093652    -7.201867
 F    -0.744295    -4.928415   -10.096537
 F    -1.334532   -13.444419    -4.776303
 F    -0.489133    -2.621800    -8.855163
 F    -1.233258   -13.358113    -2.147827
 F    -0.258944    -0.307900    -7.622494
 F    -1.158049   -13.280280     0.481789
 F    -0.593252     1.192392    -5.258091
 F    -1.492357   -11.779988     2.846191
 F    -0.518043     1.270225    -2.628476
 F    -1.262168    -9.466088     4.078861
 F    -0.645996     1.263551    -0.000000
 F    -1.007005    -7.159473     5.320234


