%chk=ethen_NormalMode1_0.01au.chk
#p B3LYP/6-31G(d,p) GFprint GFinput Iop(7/8=30)

Vypocet molekuly ethenu pro posuniti 0.01 au po koordinate normaliho modu 1

0 1 
 C     0.00021117     0.66503625     0.00000000
 H    -0.92470795     1.23565279    -0.00000000
 H     0.92214702     1.24035280    -0.00000000
 C     0.00021118    -0.66503610    -0.00000000
 H     0.92219194    -1.24030007     0.00000000
 H    -0.92465510    -1.23570631    -0.00000000
 
 